c File: flat50_3_0.col
c
c SOURCE: Joseph Culberson (joe@cs.ualberta.ca)
c DESCRIPTION: Quasi-random coloring problem
c              generated with flatness = 0
c                             probability = 0.139
c                             known coloring = 3
c                             random seed = 1989
c              Creation Date:  Tue Jun  9 12:22:56 1998
c Maximum degree = 8 Minimum degree = 0
c p edge 50 115
c cnf created by edge2cnf
p cnf 150 545
-1 -2 0
-1 -3 0
-2 -3 0
1 2 3 0
-4 -5 0
-4 -6 0
-5 -6 0
4 5 6 0
-7 -8 0
-7 -9 0
-8 -9 0
7 8 9 0
-10 -11 0
-10 -12 0
-11 -12 0
10 11 12 0
-13 -14 0
-13 -15 0
-14 -15 0
13 14 15 0
-16 -17 0
-16 -18 0
-17 -18 0
16 17 18 0
-19 -20 0
-19 -21 0
-20 -21 0
19 20 21 0
-22 -23 0
-22 -24 0
-23 -24 0
22 23 24 0
-25 -26 0
-25 -27 0
-26 -27 0
25 26 27 0
-28 -29 0
-28 -30 0
-29 -30 0
28 29 30 0
-31 -32 0
-31 -33 0
-32 -33 0
31 32 33 0
-34 -35 0
-34 -36 0
-35 -36 0
34 35 36 0
-37 -38 0
-37 -39 0
-38 -39 0
37 38 39 0
-40 -41 0
-40 -42 0
-41 -42 0
40 41 42 0
-43 -44 0
-43 -45 0
-44 -45 0
43 44 45 0
-46 -47 0
-46 -48 0
-47 -48 0
46 47 48 0
-49 -50 0
-49 -51 0
-50 -51 0
49 50 51 0
-52 -53 0
-52 -54 0
-53 -54 0
52 53 54 0
-55 -56 0
-55 -57 0
-56 -57 0
55 56 57 0
-58 -59 0
-58 -60 0
-59 -60 0
58 59 60 0
-61 -62 0
-61 -63 0
-62 -63 0
61 62 63 0
-64 -65 0
-64 -66 0
-65 -66 0
64 65 66 0
-67 -68 0
-67 -69 0
-68 -69 0
67 68 69 0
-70 -71 0
-70 -72 0
-71 -72 0
70 71 72 0
-73 -74 0
-73 -75 0
-74 -75 0
73 74 75 0
-76 -77 0
-76 -78 0
-77 -78 0
76 77 78 0
-79 -80 0
-79 -81 0
-80 -81 0
79 80 81 0
-82 -83 0
-82 -84 0
-83 -84 0
82 83 84 0
-85 -86 0
-85 -87 0
-86 -87 0
85 86 87 0
-88 -89 0
-88 -90 0
-89 -90 0
88 89 90 0
-91 -92 0
-91 -93 0
-92 -93 0
91 92 93 0
-94 -95 0
-94 -96 0
-95 -96 0
94 95 96 0
-97 -98 0
-97 -99 0
-98 -99 0
97 98 99 0
-100 -101 0
-100 -102 0
-101 -102 0
100 101 102 0
-103 -104 0
-103 -105 0
-104 -105 0
103 104 105 0
-106 -107 0
-106 -108 0
-107 -108 0
106 107 108 0
-109 -110 0
-109 -111 0
-110 -111 0
109 110 111 0
-112 -113 0
-112 -114 0
-113 -114 0
112 113 114 0
-115 -116 0
-115 -117 0
-116 -117 0
115 116 117 0
-118 -119 0
-118 -120 0
-119 -120 0
118 119 120 0
-121 -122 0
-121 -123 0
-122 -123 0
121 122 123 0
-124 -125 0
-124 -126 0
-125 -126 0
124 125 126 0
-127 -128 0
-127 -129 0
-128 -129 0
127 128 129 0
-130 -131 0
-130 -132 0
-131 -132 0
130 131 132 0
-133 -134 0
-133 -135 0
-134 -135 0
133 134 135 0
-136 -137 0
-136 -138 0
-137 -138 0
136 137 138 0
-139 -140 0
-139 -141 0
-140 -141 0
139 140 141 0
-142 -143 0
-142 -144 0
-143 -144 0
142 143 144 0
-145 -146 0
-145 -147 0
-146 -147 0
145 146 147 0
-148 -149 0
-148 -150 0
-149 -150 0
148 149 150 0
-127 -1 0
-128 -2 0
-129 -3 0
-145 -1 0
-146 -2 0
-147 -3 0
-76 -4 0
-77 -5 0
-78 -6 0
-94 -4 0
-95 -5 0
-96 -6 0
-112 -4 0
-113 -5 0
-114 -6 0
-70 -7 0
-71 -8 0
-72 -9 0
-85 -7 0
-86 -8 0
-87 -9 0
-91 -7 0
-92 -8 0
-93 -9 0
-94 -7 0
-95 -8 0
-96 -9 0
-112 -7 0
-113 -8 0
-114 -9 0
-130 -7 0
-131 -8 0
-132 -9 0
-61 -10 0
-62 -11 0
-63 -12 0
-94 -10 0
-95 -11 0
-96 -12 0
-97 -10 0
-98 -11 0
-99 -12 0
-100 -10 0
-101 -11 0
-102 -12 0
-118 -10 0
-119 -11 0
-120 -12 0
-127 -10 0
-128 -11 0
-129 -12 0
-136 -10 0
-137 -11 0
-138 -12 0
-145 -10 0
-146 -11 0
-147 -12 0
-91 -13 0
-92 -14 0
-93 -15 0
-118 -13 0
-119 -14 0
-120 -15 0
-133 -13 0
-134 -14 0
-135 -15 0
-145 -13 0
-146 -14 0
-147 -15 0
-61 -16 0
-62 -17 0
-63 -18 0
-79 -16 0
-80 -17 0
-81 -18 0
-109 -16 0
-110 -17 0
-111 -18 0
-64 -19 0
-65 -20 0
-66 -21 0
-73 -19 0
-74 -20 0
-75 -21 0
-88 -19 0
-89 -20 0
-90 -21 0
-109 -19 0
-110 -20 0
-111 -21 0
-124 -19 0
-125 -20 0
-126 -21 0
-142 -19 0
-143 -20 0
-144 -21 0
-85 -22 0
-86 -23 0
-87 -24 0
-106 -22 0
-107 -23 0
-108 -24 0
-112 -22 0
-113 -23 0
-114 -24 0
-118 -22 0
-119 -23 0
-120 -24 0
-58 -25 0
-59 -26 0
-60 -27 0
-67 -25 0
-68 -26 0
-69 -27 0
-70 -25 0
-71 -26 0
-72 -27 0
-94 -25 0
-95 -26 0
-96 -27 0
-106 -25 0
-107 -26 0
-108 -27 0
-109 -25 0
-110 -26 0
-111 -27 0
-82 -28 0
-83 -29 0
-84 -30 0
-109 -28 0
-110 -29 0
-111 -30 0
-124 -28 0
-125 -29 0
-126 -30 0
-127 -28 0
-128 -29 0
-129 -30 0
-142 -28 0
-143 -29 0
-144 -30 0
-67 -34 0
-68 -35 0
-69 -36 0
-70 -34 0
-71 -35 0
-72 -36 0
-88 -34 0
-89 -35 0
-90 -36 0
-112 -34 0
-113 -35 0
-114 -36 0
-136 -34 0
-137 -35 0
-138 -36 0
-139 -34 0
-140 -35 0
-141 -36 0
-61 -37 0
-62 -38 0
-63 -39 0
-76 -37 0
-77 -38 0
-78 -39 0
-100 -37 0
-101 -38 0
-102 -39 0
-121 -37 0
-122 -38 0
-123 -39 0
-136 -37 0
-137 -38 0
-138 -39 0
-148 -37 0
-149 -38 0
-150 -39 0
-52 -40 0
-53 -41 0
-54 -42 0
-67 -40 0
-68 -41 0
-69 -42 0
-76 -40 0
-77 -41 0
-78 -42 0
-79 -40 0
-80 -41 0
-81 -42 0
-103 -40 0
-104 -41 0
-105 -42 0
-85 -43 0
-86 -44 0
-87 -45 0
-121 -43 0
-122 -44 0
-123 -45 0
-133 -43 0
-134 -44 0
-135 -45 0
-142 -43 0
-143 -44 0
-144 -45 0
-148 -43 0
-149 -44 0
-150 -45 0
-52 -46 0
-53 -47 0
-54 -48 0
-97 -46 0
-98 -47 0
-99 -48 0
-100 -46 0
-101 -47 0
-102 -48 0
-64 -49 0
-65 -50 0
-66 -51 0
-67 -49 0
-68 -50 0
-69 -51 0
-70 -49 0
-71 -50 0
-72 -51 0
-91 -49 0
-92 -50 0
-93 -51 0
-118 -49 0
-119 -50 0
-120 -51 0
-127 -52 0
-128 -53 0
-129 -54 0
-133 -55 0
-134 -56 0
-135 -57 0
-136 -55 0
-137 -56 0
-138 -57 0
-142 -55 0
-143 -56 0
-144 -57 0
-139 -58 0
-140 -59 0
-141 -60 0
-145 -61 0
-146 -62 0
-147 -63 0
-145 -64 0
-146 -65 0
-147 -66 0
-103 -70 0
-104 -71 0
-105 -72 0
-133 -70 0
-134 -71 0
-135 -72 0
-142 -70 0
-143 -71 0
-144 -72 0
-103 -73 0
-104 -74 0
-105 -75 0
-121 -73 0
-122 -74 0
-123 -75 0
-142 -73 0
-143 -74 0
-144 -75 0
-145 -73 0
-146 -74 0
-147 -75 0
-124 -76 0
-125 -77 0
-126 -78 0
-127 -76 0
-128 -77 0
-129 -78 0
-136 -76 0
-137 -77 0
-138 -78 0
-121 -79 0
-122 -80 0
-123 -81 0
-124 -82 0
-125 -83 0
-126 -84 0
-148 -82 0
-149 -83 0
-150 -84 0
-136 -85 0
-137 -86 0
-138 -87 0
-148 -85 0
-149 -86 0
-150 -87 0
-103 -88 0
-104 -89 0
-105 -90 0
-136 -88 0
-137 -89 0
-138 -90 0
-103 -91 0
-104 -92 0
-105 -93 0
-106 -91 0
-107 -92 0
-108 -93 0
-109 -91 0
-110 -92 0
-111 -93 0
-130 -91 0
-131 -92 0
-132 -93 0
-109 -94 0
-110 -95 0
-111 -96 0
-118 -94 0
-119 -95 0
-120 -96 0
-133 -94 0
-134 -95 0
-135 -96 0
-148 -94 0
-149 -95 0
-150 -96 0
-106 -97 0
-107 -98 0
-108 -99 0
-109 -97 0
-110 -98 0
-111 -99 0
-142 -97 0
-143 -98 0
-144 -99 0
-112 -100 0
-113 -101 0
-114 -102 0
-130 -100 0
-131 -101 0
-132 -102 0
-133 -100 0
-134 -101 0
-135 -102 0
